TITL 03srv183 in C2/c
CELL 0.71073   7.169  29.969   6.807  90.000 103.66  90.000
ZERR    4.00   0.002   0.006   0.002   0.000   0.01   0.000
LATT  7
SYMM -X, Y, 0.5-Z
SFAC C H F
UNIT 72 28 20
TEMP -153
L.S. 6
BOND
FMAP 2
PLAN 10
ACTA
WGHT    0.086700    3.268000
FVAR       0.29444
F1    3    0.163203    0.410975    0.136442    11.00000    0.05374    0.06257 =
         0.05796    0.00651    0.01462    0.01904
F2    3    0.164801    0.321227    0.136532    11.00000    0.05597    0.06306 =
         0.06442   -0.00422    0.02085   -0.02127
F3    3    0.500000    0.276252    0.250000    10.50000    0.10236    0.02567 =
         0.05820    0.00000    0.03643    0.00000
PART -1
C1    1    0.599619    0.576029    0.286881    10.50000    0.03449
AFIX   3
H1    2    0.723955    0.563403    0.330903    10.50000   -1.20000
AFIX   0
C2    1    0.442812    0.548971    0.233745    10.50000    0.03070
C3    1    0.256962    0.568283    0.171357    10.50000    0.03757
AFIX   3
H3    2    0.147898    0.549377    0.135733    10.50000   -1.20000
AFIX   0
C4    1    0.232704    0.613367    0.161225    10.50000    0.03773
AFIX   3
H4    2    0.108016    0.625813    0.117271    10.50000   -1.20000
AFIX   0
C5    1    0.375634    0.690714    0.208558    10.50000    0.04038
AFIX   3
H5    2    0.253408    0.704568    0.168780    10.50000   -1.20000
AFIX   0
C6    1    0.537869    0.715968    0.261786    10.50000    0.03669
AFIX   3
H6    2    0.528395    0.747575    0.255298    10.50000   -1.20000
AFIX   0
C7    1    0.720134    0.695788    0.324550    10.50000    0.04605
AFIX   3
H7    2    0.830751    0.714154    0.362297    10.50000   -1.20000
AFIX   0
C8    1    0.740451    0.651855    0.332162    10.50000    0.04072
AFIX   3
H8    2    0.864831    0.639184    0.374888    10.50000   -1.20000
AFIX   0
C9    1    0.577284    0.623179    0.276449    10.50000    0.03268
C10   1    0.392792    0.641359    0.215523    10.50000    0.03320
C11   1    0.459741    0.501207    0.238931    10.50000    0.03104
C12   1    0.469948    0.461083    0.241240    10.50000    0.03098
PART 0
C13   1    0.500000    0.413782    0.250000    10.50000    0.05703    0.02898 =
         0.02704    0.00000    0.01569    0.00000
C14   1    0.331409    0.389552    0.193125    11.00000    0.04564    0.04087 =
         0.03378    0.00168    0.01378    0.00914
C15   1    0.330458    0.343849    0.192999    11.00000    0.04729    0.04017 =
         0.03652   -0.00209    0.01768   -0.00852
C16   1    0.500000    0.320973    0.250000    10.50000    0.06895    0.02703 =
         0.03464    0.00000    0.02493    0.00000
 
HKLF 4
 
REM  03srv183 in C2/c
REM R1 =  0.0756 for    884 Fo > 4sig(Fo)  and  0.1030 for all   1269 data
REM    100 parameters refined using      0 restraints
 
END  
     
WGHT      0.0667      3.5273 
REM Highest difference peak  0.488,  deepest hole -0.288,  1-sigma level  0.063
Q1    1   0.5000  0.6376  0.2500  10.50000  0.05    0.49
Q2    1   0.6568  0.7115  0.3066  11.00000  0.05    0.37
Q3    1   0.6637  0.6236  0.3091  11.00000  0.05    0.32
Q4    1   0.6568  0.5575  0.3055  11.00000  0.05    0.27
Q5    1   0.0576  0.4273 -0.0247  11.00000  0.05    0.21
Q6    1   0.5000  0.5573  0.2500  10.50000  0.05    0.20
Q7    1   0.1904  0.6906  0.1261  11.00000  0.05    0.19
Q8    1   0.5000  0.6884  0.2500  10.50000  0.05    0.18
Q9    1   0.5000  0.7351  0.2500  10.50000  0.05    0.17
Q10   1   0.6589  0.6652  0.3021  11.00000  0.05    0.17
