TITL S164 IN P2(1)/N
CELL 0.71073 6.9196 14.5749 9.7248 90 90.637 90
ZERR 4 0.0001 0.0002 0.0001 0 0.001 0
LATT 1
SYMM 0.5-X,0.5+Y,0.5-Z
SFAC C H F N
UNIT 40.000 40.000 8.000 16.000
L.S. 4
PLAN 20
BOND
FMAP 2
EADP C2A C2B C3A C3B
OMIT -4 52
 
WGHT    0.047500    0.276100
FVAR       0.36856   0.78730
F1    3    0.131183    0.814951    0.487492    11.00000    0.04138    0.01906 =
         0.03484   -0.00274   -0.00484   -0.00279
F2    3    0.167451    0.926345    0.262340    11.00000    0.03647    0.03168 =
         0.02134   -0.00770   -0.00321    0.00014
N1    4    0.362200    1.169322    0.576377    11.00000    0.02811    0.01995 =
         0.02020   -0.00068    0.00203   -0.00110
N4    4    0.302828    1.042398    0.785207    11.00000    0.03656    0.02445 =
         0.01814    0.00056   -0.00080   -0.00340
N6    4    0.221873    0.930310    0.629705    11.00000    0.02298    0.02151 =
         0.02370    0.00071   -0.00097    0.00088
N12   4    0.251277    1.138845    0.180448    11.00000    0.05549    0.03669 =
         0.02429    0.00324   -0.00160   -0.00425
PART 1
C2A   1    0.303562    1.202165    0.711979    10.85000    0.02971    0.02562 =
         0.02200   -0.00498    0.00141   -0.00109
AFIX  23
H2AA  2    0.164128    1.208649    0.714425    10.85000   -1.50000
H2AB  2    0.360948    1.261725    0.730144    10.85000   -1.50000
PART 2
AFIX   0
C2B   1    0.391672    1.196024    0.719978    10.15000    0.02971    0.02562 =
         0.02200   -0.00498    0.00141   -0.00109
AFIX  23
H2BA  2    0.529543    1.197745    0.738954    10.15000   -1.50000
H2BB  2    0.342393    1.257792    0.731828    10.15000   -1.50000
PART 1
AFIX   0
C3A   1    0.369718    1.134053    0.820453    10.85000    0.02971    0.02562 =
         0.02200   -0.00498    0.00141   -0.00109
AFIX  23
H3AA  2    0.509695    1.134428    0.827024    10.85000   -1.50000
H3AB  2    0.318917    1.151698    0.909177    10.85000   -1.50000
PART 2
AFIX   0
C3B   1    0.301978    1.137266    0.820678    10.15000    0.02971    0.02562 =
         0.02200   -0.00498    0.00141   -0.00109
AFIX  23
H3BB  2    0.368799    1.144964    0.908129    10.15000   -1.50000
H3BA  2    0.169265    1.156858    0.832690    10.15000   -1.50000
PART 0
AFIX   0
C5    1    0.274827    1.016652    0.652603    11.00000    0.01933    0.02198 =
         0.02088    0.00023    0.00018    0.00258
C7    1    0.188474    0.902879    0.502243    11.00000    0.02238    0.01807 =
         0.02761   -0.00251   -0.00159    0.00140
C8    1    0.206189    0.957257    0.390802    11.00000    0.02182    0.02566 =
         0.01996   -0.00480   -0.00148    0.00339
C9    1    0.262131    1.049748    0.409490    11.00000    0.01878    0.02356 =
         0.01997    0.00092    0.00191    0.00365
C10   1    0.301012    1.082568    0.542156    11.00000    0.01700    0.02070 =
         0.02093   -0.00086    0.00119    0.00294
C11   1    0.395706    1.239318    0.473172    11.00000    0.03818    0.02212 =
         0.02764    0.00323    0.00122   -0.00436
AFIX 137
H11A  2    0.471017    1.213947    0.400093    11.00000   -1.50000
H11C  2    0.464241    1.289813    0.514209    11.00000   -1.50000
H11B  2    0.274021    1.260485    0.436958    11.00000   -1.50000
AFIX   0
C12   1    0.260787    1.103317    0.285403    11.00000    0.03019    0.02672 =
         0.02163   -0.00258    0.00087    0.00000
C41   1    0.267991    0.976068    0.894149    11.00000    0.04068    0.03110 =
         0.02090    0.00301   -0.00036   -0.00362
AFIX 137
H41A  2    0.356838    0.925840    0.885796    11.00000   -1.50000
H41B  2    0.137941    0.953545    0.886514    11.00000   -1.50000
H41C  2    0.286230    1.005094    0.981952    11.00000   -1.50000
HKLF 4 1 1 0 0 0 1 0 0 0 1
 
REM  S164 IN P2(1)/N
REM R1 =  0.0353 for   1701 Fo > 4sig(Fo)  and  0.0395 for all   1929 data
REM    148 parameters refined using      0 restraints
 
END  
     
WGHT      0.0475      0.2761 
REM Highest difference peak  0.266,  deepest hole -0.378,  1-sigma level  0.120
Q1    1   0.4474  1.2698  0.7293  11.00000  0.05    0.23
Q2    1  -0.0010  0.9744  0.8260  11.00000  0.05    0.21
Q3    1   0.4856  1.1934  0.2166  11.00000  0.05    0.21
Q4    1   0.5021  1.2642  0.2947  11.00000  0.05    0.21
Q5    1   0.4891  0.8832  0.9538  11.00000  0.05    0.20
Q6    1   0.0247  1.2009  0.7304  11.00000  0.05    0.20
Q7    1   0.0005  1.2711  0.6405  11.00000  0.05    0.20
Q8    1   0.0004  1.1267  0.2695  11.00000  0.05    0.20
Q9    1   0.0012  0.9829  0.9657  11.00000  0.05    0.20
Q10   1   0.4956  1.0528  0.9823  11.00000  0.05    0.20
Q11   1  -0.0058  0.8286  0.6458  11.00000  0.05    0.20
Q12   1   0.4857  0.8568  0.8956  11.00000  0.05    0.20
Q13   1   0.5273  1.0218  0.8823  11.00000  0.05    0.20
Q14   1   0.5113  0.9734  0.8191  11.00000  0.05    0.20
Q15   1   0.0042  0.7396  0.4840  11.00000  0.05    0.20
Q16   1   0.5311  1.2629  0.8451  11.00000  0.05    0.20
Q17   1   0.5027  1.3218  0.7382  11.00000  0.05    0.20
Q18   1   0.5154  1.2007  0.9523  11.00000  0.05    0.19
Q19   1   0.4970  1.1566  0.5933  11.00000  0.05    0.19
Q20   1  -0.0002  1.0001  0.4629  11.00000  0.05    0.19
